# Objective value = 4.6707599999999993e+03
I_0_0 1549
I_0_1 2.1879999999999991e+03
I_0_2 1.8929999999999982e+03
I_0_3 1.9270000000000014e+03
I_0_4 1.7930000000000025e+03
I_0_5 1.7040000000000007e+03
I_0_6 2.3429999999999991e+03
I_1_0 26
I_1_1 13
I_1_2 2.5999999999999460e+01
I_1_3 1.2999999999999677e+01
I_1_4 2.5999999999999936e+01
I_1_5 1.2999999999999934e+01
I_1_6 5.6843418860808015e-14
I_2_0 190
I_2_1 9.5000000000000028e+01
I_2_2 5.6843418860808015e-14
I_2_3 1.8999999999999997e+02
I_2_4 1.8999999999999983e+02
I_2_5 9.4999999999999972e+01
I_2_6 -2.8421709430404007e-14
I_3_0 78
I_3_1 39
I_3_2 7.7999999999997584e+01
I_3_3 3.9000000000000043e+01
I_3_4 2.8421709430404007e-14
I_3_5 7.7999999999999829e+01
I_3_6 3.9000000000000512e+01
I_4_0 39
I_4_1 0
I_4_2 39
I_4_3 0
I_4_4 39
I_4_5 3.9000000000000050e+01
I_4_6 -5.1958437552457326e-14
I_5_0 94
I_5_1 47
I_5_2 94
I_5_3 4.7000000000000007e+01
I_5_4 94
I_5_5 4.7000000000000007e+01
I_5_6 0
I_6_0 89
I_6_1 0
I_6_2 89
I_6_3 1.2845280394913061e-13
I_6_4 8.8999999999999872e+01
I_6_5 8.8999999999999844e+01
I_6_6 2.3714363805993344e-13
I_7_0 55
I_7_1 0
I_7_2 55
I_7_3 5.8161808702550388e-13
I_7_4 55
I_7_5 5.5000000000000036e+01
I_7_6 1.2212453270876722e-14
I_8_0 154
I_8_1 77
I_8_2 3.6379788070917130e-12
I_8_3 1.5399999999999855e+02
I_8_4 7.6999999999998337e+01
I_8_5 1.5399999999999963e+02
I_8_6 7.6999999999999929e+01
I_9_0 89
I_9_1 0
I_9_2 89
I_9_3 8.9000000000000014e+01
I_9_4 -3.5895765526650081e-14
I_9_5 8.8999999999999957e+01
I_9_6 3.9523939676655573e-14
I_10_0 96
I_10_1 0
I_10_2 96
I_10_3 5.3290705182007514e-15
I_10_4 96
I_10_5 9.6000000000000128e+01
I_10_6 -1.4921397450962104e-13
q_1_0 0
q_1_1 2.5999999999999460e+01
q_1_2 2.1849189124623081e-13
q_1_3 2.6000000000000263e+01
q_1_4 0
q_1_5 1.2079226507921703e-13
q_2_0 2.96637714392034e-14
q_2_1 0
q_2_2 2.8499999999999994e+02
q_2_3 9.4999999999999943e+01
q_2_4 5.6843418860808015e-14
q_2_5 0
q_3_0 0
q_3_1 7.7999999999997556e+01
q_3_2 2.4620305794087471e-12
q_3_3 0
q_3_4 1.1699999999999966e+02
q_3_5 7.3896444519050419e-13
q_4_0 0
q_4_1 78
q_4_2 0
q_4_3 78
q_4_4 3.9000000000000050e+01
q_4_5 -1.0169642905566434e-13
q_5_0 0
q_5_1 94
q_5_2 0
q_5_3 94
q_5_4 0
q_5_5 0
q_6_0 0
q_6_1 178
q_6_2 1.2845280394913061e-13
q_6_3 1.7799999999999974e+02
q_6_4 8.8999999999999972e+01
q_6_5 3.9346303992715548e-13
q_7_0 0
q_7_1 110
q_7_2 5.8161808702550388e-13
q_7_3 1.0999999999999942e+02
q_7_4 5.5000000000000036e+01
q_7_5 -2.3314683517128287e-14
q_8_0 0
q_8_1 3.4852121189032914e-12
q_8_2 2.3099999999999491e+02
q_8_3 -8.5265128291212022e-14
q_8_4 1.5400000000000122e+02
q_8_5 3.2507330161024584e-13
q_9_0 0
q_9_1 178
q_9_2 8.9000000000000014e+01
q_9_3 -5.0106620241852085e-14
q_9_4 178
q_9_5 8.2156503822261584e-14
q_10_0 0
q_10_1 192
q_10_2 5.3290705182007514e-15
q_10_3 192
q_10_4 9.6000000000000128e+01
q_10_5 -2.7711166694643907e-13
y_0_0 3.1225022567582528e-16
y_0_1 1
y_0_2 9.9999999999997713e-01
y_0_3 1
y_0_4 1.0000000000000016e+00
y_0_5 4.4408920985006262e-16
y_1_0 0
y_1_1 9.9999999999997935e-01
y_1_2 2.0705659409259169e-14
y_1_3 9.9999999999999711e-01
y_1_4 0
y_1_5 3.2196467714129540e-15
y_2_0 3.1225022567582528e-16
y_2_1 2.0166160408230382e-16
y_2_2 9.9999999999999956e-01
y_2_3 9.9999999999999978e-01
y_2_4 0
y_2_5 0
y_3_0 0
y_3_1 9.9999999999996880e-01
y_3_2 2.1149748619109232e-14
y_3_3 0
y_3_4 0.999999999999999
y_3_5 0
y_4_0 0
y_4_1 1
y_4_2 0
y_4_3 1
y_4_4 1.0000000000000013e+00
y_4_5 -1.3322676295501878e-15
y_5_0 0
y_5_1 1
y_5_2 0
y_5_3 1
y_5_4 0
y_5_5 0
y_6_0 0
y_6_1 1
y_6_2 1.4432899320127035e-15
y_6_3 9.9999999999999856e-01
y_6_4 9.9999999999999822e-01
y_6_5 2.6645352591003757e-15
y_7_0 0
y_7_1 1
y_7_2 1.0574874309554616e-14
y_7_3 1
y_7_4 1.0000000000000007e+00
y_7_5 2.2204460492503131e-16
y_8_0 0
y_8_1 2.2620794126737565e-14
y_8_2 9.9999999999997757e-01
y_8_3 -6.6613381477509392e-16
y_8_4 0.999999999999999
y_8_5 0
y_9_0 0
y_9_1 1
y_9_2 1.0000000000000002e+00
y_9_3 -4.0332320816460765e-16
y_9_4 9.9999999999999956e-01
y_9_5 4.4408920985006262e-16
y_10_0 0
y_10_1 1
y_10_2 5.5511151231257827e-17
y_10_3 1
y_10_4 1.0000000000000013e+00
y_10_5 -1.5543122344752192e-15
x_0_1_0 0
x_0_1_1 0
x_0_1_2 8.5903506530371487e-15
x_0_1_3 0
x_0_1_4 0
x_0_1_5 0
x_0_2_0 6.2450045135165055e-16
x_0_2_1 2.0166160408230382e-16
x_0_2_2 9.9999999999995559e-01
x_0_2_3 9.9999999999999978e-01
x_0_2_4 6.6613381477509392e-16
x_0_2_5 -2.2204460492503131e-16
x_0_3_0 0
x_0_3_1 0
x_0_3_2 0
x_0_3_3 0
x_0_3_4 0
x_0_3_5 0
x_0_4_0 0
x_0_4_1 0
x_0_4_2 1.0227929614359255e-14
x_0_4_3 0
x_0_4_4 1.0000000000000018e+00
x_0_4_5 -3.3306690738754696e-15
x_0_5_0 0
x_0_5_1 0
x_0_5_2 0
x_0_5_3 0
x_0_5_4 0
x_0_5_5 0
x_0_6_0 0
x_0_6_1 1
x_0_6_2 0
x_0_6_3 9.9999999999999778e-01
x_0_6_4 -2.3314683517128287e-15
x_0_6_5 2.6645352591003757e-15
x_0_7_0 0
x_0_7_1 0
x_0_7_2 0
x_0_7_3 0
x_0_7_4 0.999999999999999
x_0_7_5 0
x_0_8_0 0
x_0_8_1 1.8818280267396403e-14
x_0_8_2 9.9999999999997857e-01
x_0_8_3 9.52363188311267e-16
x_0_8_4 0
x_0_8_5 0
x_0_9_0 0
x_0_9_1 9.9999999999998124e-01
x_0_9_2 0
x_0_9_3 -2.5153490401663703e-16
x_0_9_4 0
x_0_9_5 0
x_0_10_0 0
x_0_10_1 0
x_0_10_2 0
x_0_10_3 1.8023776915399026e-15
x_0_10_4 0
x_0_10_5 0
x_1_2_0 0
x_1_2_1 0
x_1_2_2 0
x_1_2_3 0
x_1_2_4 0
x_1_2_5 0
x_1_3_0 0
x_1_3_1 9.9999999999994815e-01
x_1_3_2 1.0338951916821770e-14
x_1_3_3 0
x_1_3_4 0
x_1_3_5 5.3290705182007514e-15
x_1_4_0 0
x_1_4_1 0
x_1_4_2 0
x_1_4_3 0
x_1_4_4 0
x_1_4_5 0
x_1_5_0 0
x_1_5_1 0
x_1_5_2 0
x_1_5_3 0
x_1_5_4 0
x_1_5_5 0
x_1_6_0 0
x_1_6_1 0
x_1_6_2 0
x_1_6_3 0
x_1_6_4 0
x_1_6_5 0
x_1_7_0 0
x_1_7_1 3.1086244689504383e-14
x_1_7_2 0
x_1_7_3 9.9999999999999667e-01
x_1_7_4 -1.1102230246251565e-16
x_1_7_5 0
x_1_8_0 0
x_1_8_1 0
x_1_8_2 0
x_1_8_3 0
x_1_8_4 0
x_1_8_5 0
x_1_9_0 0
x_1_9_1 0
x_1_9_2 0
x_1_9_3 0
x_1_9_4 0
x_1_9_5 0
x_1_10_0 0
x_1_10_1 9.9999999999997935e-01
x_1_10_2 2.1121993043493603e-14
x_1_10_3 9.9999999999999623e-01
x_1_10_4 0
x_1_10_5 0
x_2_3_0 0
x_2_3_1 0
x_2_3_2 0
x_2_3_3 0
x_2_3_4 0
x_2_3_5 0
x_2_4_0 0
x_2_4_1 0
x_2_4_2 0
x_2_4_3 0
x_2_4_4 0
x_2_4_5 0
x_2_5_0 0
x_2_5_1 0
x_2_5_2 0
x_2_5_3 0
x_2_5_4 0
x_2_5_5 0
x_2_6_0 0
x_2_6_1 0
x_2_6_2 0
x_2_6_3 0
x_2_6_4 0
x_2_6_5 0
x_2_7_0 0
x_2_7_1 0
x_2_7_2 0
x_2_7_3 0
x_2_7_4 0
x_2_7_5 0
x_2_8_0 0
x_2_8_1 0
x_2_8_2 0
x_2_8_3 0
x_2_8_4 0
x_2_8_5 0
x_2_9_0 0
x_2_9_1 2.0686577451023425e-16
x_2_9_2 1.0000000000000433e+00
x_2_9_3 0
x_2_9_4 -6.6613381477509392e-16
x_2_9_5 2.2204460492503131e-16
x_2_10_0 0
x_2_10_1 0
x_2_10_2 0
x_2_10_3 1
x_2_10_4 0
x_2_10_5 0
x_3_4_0 0
x_3_4_1 0
x_3_4_2 0
x_3_4_3 0
x_3_4_4 0
x_3_4_5 0
x_3_5_0 0
x_3_5_1 0
x_3_5_2 1.04638520070921e-14
x_3_5_3 0
x_3_5_4 0
x_3_5_5 0
x_3_6_0 0
x_3_6_1 0
x_3_6_2 0
x_3_6_3 0
x_3_6_4 0
x_3_6_5 0
x_3_7_0 0
x_3_7_1 9.9999999999996880e-01
x_3_7_2 2.1149748619109232e-14
x_3_7_3 0
x_3_7_4 9.9999999999999789e-01
x_3_7_5 0
x_3_8_0 0
x_3_8_1 0
x_3_8_2 0
x_3_8_3 0
x_3_8_4 0
x_3_8_5 0
x_3_9_0 0
x_3_9_1 0
x_3_9_2 0
x_3_9_3 0
x_3_9_4 0
x_3_9_5 0
x_3_10_0 0
x_3_10_1 2.0705659409259169e-14
x_3_10_2 0
x_3_10_3 0
x_3_10_4 0.999999999999995
x_3_10_5 -3.1086244689504383e-15
x_4_5_0 0
x_4_5_1 1
x_4_5_2 -1.04638520070921e-14
x_4_5_3 1
x_4_5_4 0
x_4_5_5 0
x_4_6_0 0
x_4_6_1 1
x_4_6_2 -2.2204460492503131e-16
x_4_6_3 1
x_4_6_4 9.9999999999999856e-01
x_4_6_5 4.4408920985006262e-16
x_4_7_0 0
x_4_7_1 0
x_4_7_2 0
x_4_7_3 0
x_4_7_4 1.7208456881689926e-15
x_4_7_5 0
x_4_8_0 0
x_4_8_1 0
x_4_8_2 0
x_4_8_3 0
x_4_8_4 0
x_4_8_5 0
x_4_9_0 0
x_4_9_1 0
x_4_9_2 0
x_4_9_3 0
x_4_9_4 0
x_4_9_5 0
x_4_10_0 0
x_4_10_1 0
x_4_10_2 0
x_4_10_3 0
x_4_10_4 0
x_4_10_5 0
x_5_6_0 0
x_5_6_1 0
x_5_6_2 0
x_5_6_3 0
x_5_6_4 0
x_5_6_5 0
x_5_7_0 0
x_5_7_1 1
x_5_7_2 0
x_5_7_3 1
x_5_7_4 0
x_5_7_5 0
x_5_8_0 0
x_5_8_1 0
x_5_8_2 0
x_5_8_3 0
x_5_8_4 0
x_5_8_5 0
x_5_9_0 0
x_5_9_1 0
x_5_9_2 0
x_5_9_3 0
x_5_9_4 0
x_5_9_5 0
x_5_10_0 0
x_5_10_1 0
x_5_10_2 0
x_5_10_3 0
x_5_10_4 0
x_5_10_5 0
x_6_7_0 0
x_6_7_1 0
x_6_7_2 0
x_6_7_3 0
x_6_7_4 0
x_6_7_5 0
x_6_8_0 0
x_6_8_1 0
x_6_8_2 -1.1102230246251565e-15
x_6_8_3 0
x_6_8_4 0.999999999999999
x_6_8_5 0
x_6_9_0 0
x_6_9_1 0
x_6_9_2 0
x_6_9_3 0
x_6_9_4 0
x_6_9_5 0
x_6_10_0 0
x_6_10_1 0
x_6_10_2 0
x_6_10_3 0
x_6_10_4 0
x_6_10_5 0
x_7_8_0 0
x_7_8_1 0
x_7_8_2 0
x_7_8_3 0
x_7_8_4 0
x_7_8_5 0
x_7_9_0 0
x_7_9_1 0
x_7_9_2 0
x_7_9_3 0
x_7_9_4 0
x_7_9_5 0
x_7_10_0 0
x_7_10_1 0
x_7_10_2 0
x_7_10_3 3.2196467714129540e-15
x_7_10_4 0
x_7_10_5 0
x_8_9_0 0
x_8_9_1 1.8596235662471372e-14
x_8_9_2 9.9999999999997735e-01
x_8_9_3 0
x_8_9_4 0.999999999999999
x_8_9_5 0
x_8_10_0 0
x_8_10_1 0
x_8_10_2 0
x_8_10_3 -1.6802965269180348e-15
x_8_10_4 0
x_8_10_5 0
x_9_10_0 0
x_9_10_1 1
x_9_10_2 -2.1010970741031088e-14
x_9_10_3 0
x_9_10_4 1.0000000000000004e+00
x_9_10_5 2.2204460492503131e-16
